36 48 24 88 99 11 71 7 5 35 92 9 44 54 20 29 74 39 26 97 81 41 49 75 46 56 98 68 27 67 2 89 18 52 96 86 12 10 93 59 73 95 34 17 87 47 69 4 3 28 16 13 72 19 84 83 82 76 50 25 65 23 6 42 94 61 63 58 45 77 37 32 55 79 22 8 51 66 21 30 90 64 80 57 91 40 14 62 70 53 33 60 15 31 0 43 38 78 85 1